p edge 500 2490
1 201
1 2
1 303
1 316
1 315
2 30
2 90
2 372
2 3
2 42
3 433
3 418
3 4
3 47
4 5
4 220
4 355
4 485
4 196
5 376
5 6
5 343
5 57
5 210
6 7
6 73
6 339
6 235
6 298
7 375
7 118
7 285
7 8
7 208
8 313
8 9
8 176
8 242
8 453
9 500
9 10
9 2
9 46
9 452
10 245
10 21
10 11
10 91
10 147
11 268
11 140
11 278
11 195
11 12
12 78
12 242
12 278
12 308
12 13
13 245
13 14
13 414
13 98
13 405
14 314
14 15
14 45
14 175
14 313
15 500
15 327
15 16
15 100
15 114
16 17
16 96
16 405
16 198
17 330
17 393
17 358
17 241
17 18
18 19
18 131
18 217
18 108
18 194
19 20
19 258
19 278
19 269
19 375
20 46
20 152
20 21
20 342
20 181
21 180
21 22
21 45
21 348
21 48
22 209
22 23
22 7
22 415
22 140
23 24
23 213
23 40
23 154
23 409
24 371
24 52
24 107
24 25
24 164
25 144
25 26
25 201
25 98
25 280
26 48
26 324
26 27
26 35
26 465
27 206
27 332
27 28
27 298
27 142
28 271
28 156
28 29
28 421
28 256
29 30
29 407
29 409
29 177
29 285
30 294
30 31
30 371
30 369
30 65
31 478
31 380
31 32
31 74
31 470
32 7
32 448
32 33
32 12
32 79
33 434
33 167
33 392
33 408
33 34
34 381
34 106
34 35
34 135
34 458
35 186
35 36
35 284
35 427
35 143
36 289
36 364
36 380
36 37
36 99
37 71
37 338
37 326
37 38
37 482
38 446
38 207
38 39
38 243
38 235
39 24
39 40
39 137
39 281
39 412
40 204
40 41
40 455
40 24
40 141
41 44
41 27
41 39
41 19
41 42
42 367
42 169
42 43
42 281
42 68
43 442
43 443
43 432
43 93
43 44
44 45
44 121
44 88
44 400
44 354
45 38
45 46
45 245
45 327
45 84
46 487
46 445
46 314
46 54
46 47
47 48
47 377
47 363
47 350
47 102
48 133
48 58
48 146
48 432
48 49
49 452
49 268
49 131
49 50
49 307
50 443
50 305
50 51
50 335
50 339
51 366
51 279
51 96
51 95
51 52
52 53
52 48
52 283
52 185
52 380
53 54
53 152
53 86
53 442
53 325
54 55
54 83
54 101
54 348
54 449
55 56
55 445
55 380
55 363
55 54
56 165
56 427
56 81
56 57
56 157
57 350
57 414
57 112
57 58
57 401
58 59
58 32
58 477
58 281
58 174
59 197
59 177
59 208
59 60
59 10
60 77
60 163
60 61
60 169
60 421
61 332
61 152
61 62
61 153
61 77
62 179
62 133
62 63
62 54
62 183
63 398
63 64
63 208
63 13
63 109
64 2
64 62
64 65
64 159
64 499
65 244
65 66
65 116
65 36
65 465
66 358
66 320
66 220
66 67
66 278
67 158
67 68
67 393
67 399
67 413
68 240
68 365
68 355
68 414
68 69
69 70
69 120
69 138
69 471
69 30
70 188
70 125
70 391
70 71
70 418
71 142
71 492
71 72
71 53
71 184
72 461
72 73
72 491
72 260
72 171
73 74
73 406
73 144
73 341
73 424
74 75
74 130
74 463
74 118
74 485
75 76
75 87
75 268
75 378
75 233
76 77
76 370
76 206
76 433
76 310
77 21
77 194
77 78
77 193
77 254
78 79
78 248
78 190
78 277
78 255
79 80
79 8
79 240
79 436
79 360
80 81
80 250
80 238
80 491
80 20
81 82
81 291
81 292
81 370
81 440
82 427
82 211
82 83
82 362
82 333
83 169
83 409
83 84
83 455
83 452
84 83
84 85
84 204
84 457
84 368
85 20
85 433
85 86
85 220
85 445
86 332
86 19
86 451
86 87
86 139
87 111
87 88
87 69
87 490
87 24
88 208
88 221
88 89
88 29
88 228
89 90
89 403
89 432
89 58
89 230
90 208
90 224
90 209
90 134
90 91
91 131
91 59
91 85
91 92
91 263
92 93
92 360
92 244
92 100
92 89
93 94
93 247
93 68
93 191
93 9
94 95
94 74
94 451
94 474
94 131
95 96
95 184
95 431
95 349
95 491
96 422
96 408
96 161
96 97
96 13
97 98
97 168
97 349
97 110
97 325
98 448
98 136
98 210
98 314
98 99
99 100
99 92
99 48
99 202
99 116
100 159
100 298
100 101
100 174
100 474
101 3
101 401
101 131
101 102
101 70
102 188
102 103
102 289
102 310
102 450
103 388
103 330
103 104
103 447
103 262
104 105
104 280
104 101
104 197
104 417
105 185
105 94
105 274
105 456
105 106
106 128
106 202
106 402
106 310
106 107
107 321
107 108
107 123
107 121
107 449
108 180
108 499
108 201
108 68
108 109
109 110
109 211
109 248
109 455
109 360
110 223
110 111
110 44
110 132
110 437
111 286
111 268
111 454
111 112
111 135
112 294
112 242
112 267
112 347
112 113
113 114
113 22
113 213
113 429
113 35
114 268
114 115
114 135
114 442
114 26
115 193
115 400
115 43
115 162
115 116
116 119
116 117
116 207
116 254
116 456
117 17
117 179
117 332
117 118
117 159
118 234
118 310
118 119
118 120
118 199
119 327
119 106
119 120
119 388
120 121
120 286
120 382
120 307
120 235
121 122
121 168
121 486
121 241
121 68
122 3
122 166
122 123
122 108
122 106
123 26
123 419
123 318
123 124
123 258
124 182
124 252
124 125
124 130
124 348
125 380
125 126
125 393
125 466
125 17
126 311
126 137
126 227
126 480
126 127
127 128
127 452
127 341
127 232
127 389
128 172
128 129
128 195
128 293
128 369
129 233
129 130
129 38
129 388
129 37
130 376
130 131
130 417
130 151
130 27
131 57
131 132
131 241
131 345
131 252
132 86
132 430
132 168
132 133
132 272
133 141
133 339
133 134
133 289
133 396
134 198
134 355
134 278
134 135
134 224
135 108
135 269
135 136
135 57
135 280
136 107
136 137
136 476
136 413
136 131
137 155
137 2
137 277
137 415
137 138
138 139
138 325
138 21
138 423
138 340
139 31
139 140
139 496
139 251
139 342
140 13
140 42
140 141
140 201
140 48
141 172
141 479
141 398
141 142
141 189
142 95
142 470
142 325
142 143
142 306
143 313
143 144
143 202
143 469
143 386
144 391
144 319
144 145
144 400
144 484
145 133
145 146
145 143
145 118
145 256
146 147
146 217
146 254
146 477
146 169
147 448
147 193
147 167
147 323
147 148
148 229
148 291
148 149
148 198
148 379
149 150
149 45
149 451
149 345
149 486
150 151
150 422
150 478
150 279
150 199
151 374
151 375
151 152
151 370
151 79
152 177
152 400
152 362
152 153
152 453
153 154
153 261
153 265
153 352
153 6
154 155
154 95
154 275
154 163
154 241
155 191
155 156
155 71
155 412
155 130
156 436
156 196
156 157
156 401
156 52
157 54
157 126
157 158
157 404
157 143
158 405
158 201
158 266
158 159
158 459
159 26
159 97
159 496
159 160
159 66
160 292
160 161
160 32
160 35
160 407
161 430
161 405
161 162
161 273
161 372
162 163
162 26
162 76
162 130
162 339
163 271
163 132
163 164
163 252
163 438
164 37
164 70
164 165
164 212
164 98
165 404
165 166
165 22
165 384
165 397
166 193
166 307
166 481
166 167
166 222
167 171
167 224
167 168
167 56
167 24
168 325
168 131
168 169
168 119
168 44
169 495
169 78
169 170
169 180
169 350
170 171
170 56
170 180
170 476
170 388
171 172
171 368
171 247
171 37
171 15
172 417
172 74
172 21
172 321
172 173
173 174
173 334
173 154
173 272
173 140
174 175
174 110
174 393
174 487
174 235
175 475
175 279
175 297
175 332
175 176
176 182
176 124
176 314
176 177
176 291
177 15
177 178
177 273
177 321
177 263
178 76
178 179
178 29
178 386
178 104
179 180
179 248
179 353
179 433
179 413
180 325
180 281
180 50
180 145
180 181
181 248
181 476
181 331
181 460
181 182
182 122
182 183
182 248
182 433
182 193
183 184
183 8
183 398
183 278
183 379
184 3
184 150
184 52
184 185
184 365
185 82
185 186
185 5
185 402
185 204
186 329
186 187
186 363
186 196
186 302
187 423
187 188
187 319
187 238
187 145
188 255
188 189
188 91
188 35
188 221
189 32
189 25
189 276
189 427
189 190
190 191
190 40
190 385
190 280
190 93
191 128
191 180
191 499
191 192
191 483
192 302
192 193
192 471
192 183
192 354
193 474
193 178
193 194
193 335
193 201
194 305
194 402
194 85
194 195
194 84
195 54
195 196
195 441
195 330
195 242
196 75
196 197
196 342
196 253
196 382
197 262
197 198
197 219
197 489
197 371
198 288
198 399
198 248
198 129
198 199
199 200
199 284
199 349
199 87
199 65
200 312
200 201
200 357
200 191
200 65
201 388
201 213
201 210
201 290
201 202
202 382
202 203
202 89
202 497
202 472
203 257
203 204
203 353
203 42
203 18
204 358
204 143
204 205
204 469
204 276
205 364
205 206
205 255
205 214
205 282
206 77
206 251
206 135
206 453
206 207
207 31
207 208
207 445
207 87
207 41
208 252
208 312
208 242
208 37
208 209
209 210
209 334
209 235
209 451
209 86
210 19
210 474
210 483
210 211
210 363
211 332
211 212
211 307
211 95
211 478
212 102
212 478
212 213
212 418
212 260
213 214
213 252
213 302
213 392
213 42
214 145
214 474
214 350
214 215
214 276
215 42
215 379
215 216
215 67
216 435
216 273
216 217
216 499
216 278
217 218
217 156
217 40
217 151
217 311
218 219
218 363
218 145
218 94
218 286
219 169
219 220
219 270
219 156
219 316
220 161
220 199
220 49
220 221
220 28
221 32
221 193
221 87
221 222
221 83
222 223
222 332
222 419
222 84
222 478
223 333
223 359
223 364
223 224
223 430
224 225
224 195
224 469
224 462
224 214
225 264
225 71
225 226
225 496
225 61
226 227
226 459
226 398
226 415
226 390
227 23
227 476
227 140
227 145
227 228
228 229
228 10
228 384
228 380
228 89
229 230
229 1
229 310
229 297
229 122
230 319
230 231
230 152
230 313
230 98
231 203
231 287
231 53
231 232
231 475
232 358
232 274
232 233
232 42
233 491
233 192
233 206
233 234
233 200
234 235
234 147
234 278
234 240
234 67
235 491
235 236
235 378
235 397
235 451
236 234
236 321
236 54
236 237
236 495
237 87
237 84
237 61
237 238
237 354
238 416
238 150
238 239
238 455
238 215
239 64
239 84
239 240
239 342
239 169
240 106
240 135
240 329
240 241
240 156
241 147
241 394
241 168
241 242
241 138
242 243
242 297
242 128
242 14
242 10
243 106
243 75
243 244
243 150
243 368
244 301
244 99
244 119
244 245
244 280
245 315
245 153
245 246
245 362
245 60
246 337
246 260
246 247
246 491
246 192
247 444
247 54
247 162
247 208
247 248
248 113
248 249
248 280
248 381
248 362
249 250
249 241
249 486
249 491
249 226
250 163
250 287
250 86
250 251
250 184
251 372
251 252
251 442
251 481
251 479
252 144
252 82
252 253
252 132
252 389
253 180
253 439
253 184
253 254
253 361
254 283
254 330
254 37
254 465
254 255
255 52
255 413
255 95
255 256
255 482
256 19
256 170
256 366
256 401
256 257
257 371
257 498
257 49
257 485
257 258
258 134
258 458
258 78
258 244
258 259
259 175
259 260
259 101
259 141
259 449
260 271
260 6
260 445
260 261
260 362
261 262
261 121
261 418
261 311
261 49
262 231
262 263
262 201
262 450
262 220
263 484
263 264
263 218
263 253
263 131
264 28
264 190
264 213
264 381
264 265
265 498
265 182
265 273
265 304
265 266
266 34
266 441
266 413
266 267
267 41
267 268
267 63
267 28
267 436
268 102
268 269
268 157
268 486
268 380
269 97
269 4
269 270
269 415
269 31
270 162
270 18
270 398
270 461
270 271
271 272
271 208
271 354
271 361
271 201
272 312
272 341
272 431
272 259
272 273
273 198
273 130
273 12
273 55
273 274
274 275
274 76
274 410
274 296
274 87
275 296
275 13
275 387
275 247
275 276
276 69
276 277
276 233
276 350
276 4
277 286
277 278
277 434
277 53
278 455
278 279
278 445
278 25
278 16
279 493
279 77
279 14
279 280
279 191
280 260
280 15
280 281
280 355
280 300
281 280
281 296
281 268
281 282
281 496
282 283
282 55
282 271
282 385
282 121
283 8
283 192
283 207
283 406
283 284
284 343
284 282
284 285
284 453
284 483
285 69
285 286
285 184
285 13
285 75
286 75
286 287
286 65
286 226
286 148
287 500
287 116
287 288
287 382
287 12
288 452
288 122
288 441
288 268
288 289
289 290
289 425
289 318
289 3
289 346
290 348
290 8
290 120
290 291
290 282
291 318
291 214
291 292
291 452
291 285
292 339
292 486
292 260
292 293
292 207
293 294
293 36
293 184
293 450
293 200
294 143
294 274
294 295
294 393
294 74
295 392
295 296
295 177
295 91
295 427
296 394
296 325
296 466
296 346
296 297
297 281
297 312
297 298
297 41
297 24
298 316
298 299
298 309
298 257
298 18
299 375
299 300
299 436
299 255
299 319
300 268
300 364
300 70
300 66
300 301
301 302
301 479
301 75
301 494
301 106
302 184
302 67
302 303
302 271
302 492
303 304
303 496
303 205
303 362
303 55
304 361
304 113
304 135
304 305
304 482
305 445
305 389
305 306
305 262
305 228
306 261
306 359
306 421
306 307
306 81
307 308
307 121
307 453
307 480
307 33
308 39
308 91
308 265
308 309
308 384
309 310
309 76
309 19
309 3
309 158
310 128
310 126
310 256
310 320
310 311
311 312
311 407
311 445
311 278
312 313
312 399
312 39
312 91
312 36
313 351
313 418
313 232
313 53
313 314
314 142
314 86
314 315
314 265
314 455
315 20
315 393
315 235
315 316
315 438
316 78
316 18
316 166
316 317
316 95
317 360
317 19
317 335
317 256
317 318
318 83
318 319
318 253
318 390
318 232
319 281
319 190
319 303
319 354
319 320
320 321
320 467
320 340
320 312
320 363
321 433
321 92
321 125
321 288
321 322
322 179
322 384
322 398
322 323
322 245
323 324
323 53
323 422
323 419
323 296
324 293
324 396
324 217
324 10
324 325
325 29
325 340
325 358
325 123
325 326
326 57
326 327
326 93
326 331
326 249
327 408
327 144
327 337
327 347
327 328
328 251
328 119
328 19
328 329
328 352
329 250
329 478
329 330
329 376
329 450
330 114
330 421
330 29
330 279
330 331
331 59
331 358
331 54
331 23
331 332
332 102
332 333
332 308
332 241
332 80
333 231
333 436
333 23
333 334
333 415
334 261
334 346
334 252
334 38
334 335
335 382
335 135
335 488
335 114
335 336
336 296
336 275
336 84
336 162
336 337
337 18
337 346
337 215
337 338
337 59
338 163
338 166
338 313
338 339
338 265
339 107
339 200
339 198
339 389
339 340
340 301
340 496
340 341
340 44
340 265
341 342
341 34
341 162
341 264
341 469
342 447
342 343
342 207
342 255
342 353
343 226
343 294
343 119
343 320
343 344
344 419
344 345
344 128
344 245
344 499
345 16
345 218
345 346
345 94
345 89
346 208
346 225
346 254
346 172
346 347
347 422
347 348
347 6
347 454
347 270
348 357
348 398
348 349
348 82
348 174
349 285
349 18
349 54
349 471
349 350
350 332
350 379
350 283
350 351
350 492
351 228
351 352
351 185
351 306
351 469
352 247
352 353
352 158
352 20
352 407
353 438
353 195
353 219
353 354
353 351
354 355
354 25
354 1
354 436
354 21
355 287
355 70
355 356
355 361
355 176
356 488
356 426
356 113
356 357
356 422
357 16
357 154
357 49
357 243
357 358
358 317
358 359
358 7
358 325
358 274
359 152
359 376
359 393
359 360
359 423
360 227
360 355
360 447
360 258
360 361
361 362
361 433
361 95
361 17
361 498
362 214
362 294
362 363
362 23
362 47
363 364
363 411
363 473
363 91
363 128
364 460
364 306
364 252
364 155
364 365
365 78
365 366
365 54
365 349
365 471
366 155
366 367
366 161
366 198
366 28
367 203
367 426
367 465
367 440
367 368
368 1
368 210
368 369
368 482
368 195
369 284
369 76
369 113
369 32
369 370
370 106
370 371
370 495
370 139
370 231
371 372
371 172
371 136
371 325
371 132
372 6
372 343
372 384
372 373
372 359
373 159
373 186
373 235
373 374
373 318
374 375
374 470
374 36
374 188
374 16
375 23
375 201
375 444
375 376
375 93
376 450
376 340
376 388
376 213
376 377
377 365
377 119
377 230
377 378
377 422
378 379
378 217
378 221
378 461
378 83
379 180
379 235
379 380
379 242
379 451
380 415
380 54
380 381
380 283
380 451
381 274
381 294
381 382
381 472
381 126
382 77
382 177
382 405
382 383
382 122
383 384
383 38
383 143
383 50
383 467
384 495
384 330
384 363
384 385
384 488
385 285
385 386
385 65
385 70
385 371
386 341
386 138
386 306
386 387
386 440
387 328
387 388
387 27
387 340
387 2
388 384
388 303
388 235
388 254
388 389
389 474
389 197
389 230
389 390
389 479
390 443
390 215
390 287
390 35
390 391
391 35
391 200
391 34
391 392
392 22
392 393
392 355
392 194
392 456
393 214
393 469
393 14
393 394
393 86
394 456
394 56
394 319
394 395
394 402
395 256
395 32
395 396
395 448
395 111
396 475
396 397
396 85
396 213
396 472
397 403
397 398
397 482
397 428
397 140
398 399
398 288
398 259
398 137
398 143
399 489
399 187
399 9
399 284
399 400
400 195
400 200
400 76
400 401
400 184
401 402
401 207
401 344
401 273
401 494
402 464
402 496
402 403
402 76
402 476
403 411
403 454
403 404
403 127
403 247
404 281
404 480
404 405
404 206
404 38
405 347
405 435
405 110
405 406
406 263
406 91
406 407
406 8
406 165
407 462
407 313
407 408
407 274
407 27
408 409
408 360
408 415
408 331
408 250
409 253
409 410
409 20
409 231
409 483
410 306
410 411
410 118
410 222
410 170
411 449
411 252
411 467
411 196
411 412
412 474
412 88
412 413
412 249
412 252
413 352
413 313
413 445
413 59
413 414
414 168
414 421
414 415
414 233
414 255
415 359
415 416
415 399
415 419
415 70
416 417
416 301
416 254
416 124
416 288
417 452
417 363
417 418
417 122
417 333
418 419
418 374
418 443
418 380
418 203
419 44
419 386
419 94
419 420
419 259
420 330
420 211
420 4
420 95
420 421
421 422
421 489
421 220
421 404
421 353
422 185
422 172
422 466
422 423
422 171
423 239
423 329
423 59
423 424
423 324
424 444
424 427
424 155
424 499
424 425
425 426
425 427
425 379
425 156
425 348
426 298
426 136
426 102
426 427
426 450
427 143
427 363
427 428
427 494
427 269
428 72
428 19
428 429
428 430
428 490
429 117
429 430
429 134
429 156
429 245
430 431
430 13
430 489
430 401
430 500
431 471
431 349
431 432
431 151
431 383
432 441
432 433
432 393
432 49
432 247
433 434
433 361
433 247
433 128
433 250
434 249
434 86
434 435
434 404
434 13
435 436
435 492
435 121
435 469
435 232
436 274
436 438
436 437
436 474
436 289
437 237
437 308
437 438
437 355
437 291
438 439
438 115
438 42
438 206
438 216
439 216
439 472
439 253
439 109
439 440
440 276
440 342
440 27
440 305
440 441
441 358
441 320
441 228
441 442
441 259
442 384
442 443
442 493
442 259
442 430
443 444
443 147
443 69
443 19
443 148
444 4
444 445
444 116
444 129
444 276
445 446
445 358
445 116
445 22
445 184
446 447
446 215
446 185
446 360
446 205
447 448
447 90
447 310
447 265
447 331
448 176
448 490
448 9
448 187
448 449
449 132
449 386
449 107
449 53
449 450
450 430
450 451
450 367
450 233
450 11
451 401
451 452
451 244
451 119
451 42
452 151
452 376
452 440
452 8
452 453
453 454
453 167
453 111
453 75
453 328
454 455
454 496
454 135
454 463
454 37
455 316
455 170
455 309
455 456
455 244
456 457
456 30
456 52
456 206
456 278
457 124
457 499
457 347
457 287
457 458
458 201
458 89
458 208
458 459
458 298
459 256
459 173
459 460
459 384
459 140
460 312
460 334
460 143
460 461
460 488
461 370
461 293
461 67
461 330
461 462
462 186
462 106
462 57
462 463
462 383
463 464
463 481
463 265
463 381
463 426
464 291
464 359
464 153
464 465
464 360
465 466
465 225
465 67
465 385
465 491
466 443
466 239
466 204
466 116
466 467
467 468
467 493
467 430
467 53
467 33
468 78
468 90
468 469
468 387
468 396
469 453
469 114
469 470
469 115
469 238
470 35
470 136
470 471
470 107
470 477
471 369
471 487
471 472
471 94
471 267
472 72
472 219
472 473
472 352
472 323
473 340
473 357
473 341
473 474
473 365
474 343
474 14
474 9
474 475
474 450
475 74
475 331
475 344
475 476
475 193
476 477
476 333
476 276
476 461
476 90
477 431
477 275
477 305
477 478
477 50
478 450
478 479
478 497
478 339
478 294
479 111
479 306
479 480
479 74
479 344
480 298
480 451
480 455
480 333
480 481
481 39
481 482
481 326
481 251
481 272
482 11
482 296
482 483
482 326
482 322
483 25
483 484
483 323
483 302
483 55
484 485
484 46
484 165
484 16
484 100
485 486
485 406
485 252
485 225
485 131
486 16
486 365
486 208
486 487
486 98
487 200
487 85
487 472
487 288
487 488
488 57
488 56
488 489
488 325
488 430
489 375
489 490
489 442
489 444
489 118
490 372
490 291
490 491
490 465
490 63
491 98
491 448
491 326
491 81
491 492
492 223
492 434
492 198
492 493
492 464
493 494
493 132
493 486
493 422
493 126
494 186
494 216
494 495
494 133
494 316
495 420
495 54
495 156
495 496
495 488
496 412
496 497
496 237
496 409
496 91
497 444
497 34
497 485
497 181
497 498
498 387
498 202
498 499
498 110
498 217
499 341
499 284
499 336
499 420
499 500
500 63
500 214
500 237
500 384
500 1
